benchmarks/Mosp/data/txt/nwrsSmaller4_4.txt
NWRS4 15 customers  25 products
15 25
1  0  0  0  1  0  1  0  0  0  1  1  1  0  0  0  0  0  0  0  0  0  0  1  1
0  1  1  0  1  1  0  1  0  0  0  0  0  0  0  0  0  0  0  0  0  0  1  0  0
1  1  0  0  0  1  0  1  0  1  0  0  0  0  0  0  0  0  0  0  0  0  1  0  0
0  0  0  0  0  0  0  0  1  0  1  0  0  1  0  0  1  1  0  0  1  0  0  0  0
0  0  0  0  0  0  1  0  1  0  0  0  0  0  1  0  1  1  0  0  1  0  0  0  1
0  0  0  1  0  0  0  0  0  0  0  0  0  0  0  1  1  1  1  0  1  0  0  0  0
0  1  1  0  0  1  0  0  0  0  0  0  1  0  0  0  0  0  0  0  0  1  0  1  0
0  1  1  0  0  0  0  0  0  1  0  0  0  0  0  0  0  0  0  0  0  1  1  1  0
0  0  1  0  0  0  0  1  0  1  0  1  1  0  0  0  0  0  0  1  0  0  1  1  0
0  0  0  1  0  0  0  0  0  0  0  0  0  1  1  0  1  0  1  0  1  0  0  0  0
0  1  0  0  0  0  1  0  1  0  1  1  0  0  1  0  1  0  0  0  0  0  1  0  0
0  0  1  1  0  0  0  0  1  0  0  0  0  1  1  1  0  1  0  0  1  1  0  0  0
0  0  0  1  0  0  0  0  0  0  0  0  0  1  1  0  1  0  1  0  1  0  0  0  0
0  0  0  0  0  0  0  0  1  0  1  1  0  0  1  0  0  0  0  1  0  0  0  0  1
0  0  0  0  0  0  1  0  0  0  0  1  0  0  0  0  0  0  0  1  0  1  0  1  1
